\ LP format - for model browsing. Use MPS format to capture full model detail.
Minimize
  0 B10(0) + 0 B17(0) + 0 B22(0) + 0 B23(0) + 0 B24(0) + 0 B28(0) + 0 B29(0)
   + 0 B31(0) + 0 B34(0) + 0 B35(0) + 0 B36(0) + 0 B37(0) + 0 B38(0)
   + 0 B39(0) + 0 B40(0) + 0 B41(0) + 0 B42(0) + 0 B43(0) + 0 B44(0)
   + 0 B45(0) + I56(1)
Subject To
 c0: B0(13) + B1(17) = 1
 c1: B2(12) + B3(16) = 1
 c2: B4(17) = 1
 c3: B5(17) = 1
 c4: B6(10) + B7(14) = 1
 c5: B8(9) + B9(13) = 1
 c6: - 54 B0(13) - 63 B1(17) - I46(14) - I47(18) + I48(15) + I49(19) >= 0
 c7: - 1.000000054e+09 B0(13) - 63 B1(17) - 1e+09 B2(12) - I46(14)
   - I47(18) + I48(15) + I49(19) >= -1.999999991e+09
 c8: - 54 B0(13) - 1.000000063e+09 B1(17) - 1e+09 B3(16) - I46(14)
   - I47(18) + I48(15) + I49(19) >= -1.999999989e+09
 c9: - 120 B4(17) - I50(17) + I51(18) >= 0
 c10: - 1.00000012e+09 B4(17) - 1e+09 B5(17) - I50(17) + I51(18)
   >= -1.999999989e+09
 c11: - 125 B6(10) - 135 B7(14) - I52(10) - I53(14) + I54(11) + I55(15)
   >= 0
 c12: - 1.000000125e+09 B6(10) - 135 B7(14) - 1e+09 B8(9) - I52(10)
   - I53(14) + I54(11) + I55(15) >= -1.999999991e+09
 c13: - 125 B6(10) - 1.000000135e+09 B7(14) - 1e+09 B9(13) - I52(10)
   - I53(14) + I54(11) + I55(15) >= -1.99999999e+09
 c14: - 1e+09 B0(13) + I46(14) <= 0
 c15: - 1e+09 B1(17) + I47(18) <= 0
 c16: - 1e+09 B2(12) + I48(15) <= 0
 c17: - 1e+09 B3(16) + I49(19) <= 0
 c18: - 1e+09 B4(17) + I50(17) <= 0
 c19: - 1e+09 B5(17) + I51(18) <= 0
 c20: - 1e+09 B6(10) + I52(10) <= 0
 c21: - 1e+09 B7(14) + I53(14) <= 0
 c22: - 1e+09 B8(9) + I54(11) <= 0
 c23: - 1e+09 B9(13) + I55(15) <= 0
 c24: - 1e+09 B0(13) - 1e+09 B2(12) - 1e+09 B11(4) + I46(14) - I48(15)
   >= -2.999999902e+09
 c25: - 1e+09 B0(13) - 1e+09 B2(12) + 1e+09 B11(4) - I46(14) + I48(15)
   >= -1.999999937e+09
 c26: - 1e+09 B1(17) - 1e+09 B3(16) - 1e+09 B11(4) + I47(18) - I49(19)
   >= -2.999999895e+09
 c27: - 1e+09 B1(17) - 1e+09 B3(16) + 1e+09 B11(4) - I47(18) + I49(19)
   >= -1.999999926e+09
 c28: - 1e+09 B1(17) - 1e+09 B4(17) - 1e+09 B12(2) + I47(18) - I50(17)
   >= -2.999999871e+09
 c29: - 1e+09 B1(17) - 1e+09 B4(17) + 1e+09 B12(2) - I47(18) + I50(17)
   >= -1.999999929e+09
 c30: - 1e+09 B1(17) - 1e+09 B5(17) - 1e+09 B13(2) + I47(18) - I51(18)
   >= -2.99999984e+09
 c31: - 1e+09 B1(17) - 1e+09 B5(17) + 1e+09 B13(2) - I47(18) + I51(18)
   >= -1.999999926e+09
 c32: - 1e+09 B0(13) - 1e+09 B6(10) - 1e+09 B14(4) + I46(14) - I52(10)
   >= -2.999999865e+09
 c33: - 1e+09 B0(13) - 1e+09 B6(10) + 1e+09 B14(4) - I46(14) + I52(10)
   >= -1.999999935e+09
 c34: - 1e+09 B1(17) - 1e+09 B7(14) - 1e+09 B14(4) + I47(18) - I53(14)
   >= -2.999999854e+09
 c35: - 1e+09 B1(17) - 1e+09 B7(14) + 1e+09 B14(4) - I47(18) + I53(14)
   >= -1.999999925e+09
 c36: - 1e+09 B0(13) - 1e+09 B8(9) - 1e+09 B15(4) + I46(14) - I54(11)
   >= -2.999999846e+09
 c37: - 1e+09 B0(13) - 1e+09 B8(9) + 1e+09 B15(4) - I46(14) + I54(11)
   >= -1.999999934e+09
 c38: - 1e+09 B1(17) - 1e+09 B9(13) - 1e+09 B15(4) + I47(18) - I55(15)
   >= -2.999999865e+09
 c39: - 1e+09 B1(17) - 1e+09 B9(13) + 1e+09 B15(4) - I47(18) + I55(15)
   >= -1.999999928e+09
 c40: - 1e+09 B0(13) - 1e+09 B2(12) - 1e+09 B16(4) - I46(14) + I48(15)
   >= -2.999999937e+09
 c41: - 1e+09 B0(13) - 1e+09 B2(12) + 1e+09 B16(4) + I46(14) - I48(15)
   >= -1.999999902e+09
 c42: - 1e+09 B1(17) - 1e+09 B3(16) - 1e+09 B16(4) - I47(18) + I49(19)
   >= -2.999999926e+09
 c43: - 1e+09 B1(17) - 1e+09 B3(16) + 1e+09 B16(4) + I47(18) - I49(19)
   >= -1.999999895e+09
 c44: - 1e+09 B3(16) - 1e+09 B4(17) - 1e+09 B18(2) + I49(19) - I50(17)
   >= -2.999999869e+09
 c45: - 1e+09 B3(16) - 1e+09 B4(17) + 1e+09 B18(2) - I49(19) + I50(17)
   >= -1.999999895e+09
 c46: - 1e+09 B3(16) - 1e+09 B5(17) - 1e+09 B19(2) + I49(19) - I51(18)
   >= -2.999999836e+09
 c47: - 1e+09 B3(16) - 1e+09 B5(17) + 1e+09 B19(2) - I49(19) + I51(18)
   >= -1.999999894e+09
 c48: - 1e+09 B2(12) - 1e+09 B6(10) - 1e+09 B20(4) + I48(15) - I52(10)
   >= -2.999999864e+09
 c49: - 1e+09 B2(12) - 1e+09 B6(10) + 1e+09 B20(4) - I48(15) + I52(10)
   >= -1.999999902e+09
 c50: - 1e+09 B3(16) - 1e+09 B7(14) - 1e+09 B20(4) + I49(19) - I53(14)
   >= -2.999999855e+09
 c51: - 1e+09 B3(16) - 1e+09 B7(14) + 1e+09 B20(4) - I49(19) + I53(14)
   >= -1.999999894e+09
 c52: - 1e+09 B2(12) - 1e+09 B8(9) - 1e+09 B21(4) + I48(15) - I54(11)
   >= -2.999999847e+09
 c53: - 1e+09 B2(12) - 1e+09 B8(9) + 1e+09 B21(4) - I48(15) + I54(11)
   >= -1.999999904e+09
 c54: - 1e+09 B3(16) - 1e+09 B9(13) - 1e+09 B21(4) + I49(19) - I55(15)
   >= -2.999999868e+09
 c55: - 1e+09 B3(16) - 1e+09 B9(13) + 1e+09 B21(4) - I49(19) + I55(15)
   >= -1.999999893e+09
 c56: - 1e+09 B4(17) - 1e+09 B5(17) - 1e+09 B25(2) + I50(17) - I51(18)
   >= -2.999999838e+09
 c57: - 1e+09 B4(17) - 1e+09 B5(17) + 1e+09 B25(2) - I50(17) + I51(18)
   >= -1.999999869e+09
 c58: - 1e+09 B4(17) - 1e+09 B7(14) - 1e+09 B26(2) + I50(17) - I53(14)
   >= -2.999999855e+09
 c59: - 1e+09 B4(17) - 1e+09 B7(14) + 1e+09 B26(2) - I50(17) + I53(14)
   >= -1.999999869e+09
 c60: - 1e+09 B4(17) - 1e+09 B9(13) - 1e+09 B27(2) + I50(17) - I55(15)
   >= -2.999999866e+09
 c61: - 1e+09 B4(17) - 1e+09 B9(13) + 1e+09 B27(2) - I50(17) + I55(15)
   >= -1.99999987e+09
 c62: - 1e+09 B4(17) - 1e+09 B5(17) - 1e+09 B30(2) - I50(17) + I51(18)
   >= -2.999999869e+09
 c63: - 1e+09 B4(17) - 1e+09 B5(17) + 1e+09 B30(2) + I50(17) - I51(18)
   >= -1.999999838e+09
 c64: - 1e+09 B5(17) - 1e+09 B7(14) - 1e+09 B32(2) + I51(18) - I53(14)
   >= -2.999999854e+09
 c65: - 1e+09 B5(17) - 1e+09 B7(14) + 1e+09 B32(2) - I51(18) + I53(14)
   >= -1.999999838e+09
 c66: - 1e+09 B5(17) - 1e+09 B9(13) - 1e+09 B33(2) + I51(18) - I55(15)
   >= -2.999999866e+09
 c67: - 1e+09 B5(17) - 1e+09 B9(13) + 1e+09 B33(2) - I51(18) + I55(15)
   >= -1.999999836e+09
 c68: I46(14) >= 0
 c69: I46(14) >= 0
 c70: I47(18) >= 0
 c71: I47(18) >= 0
 c72: I48(15) >= 0
 c73: I48(15) >= 0
 c74: I49(19) >= 0
 c75: I49(19) >= 0
 c76: - 11 B4(17) + I50(17) >= 0
 c77: I50(17) >= 0
 c78: - 11 B5(17) + I51(18) >= 0
 c79: I51(18) >= 0
 c80: - 10 B6(10) + I52(10) >= 0
 c81: I52(10) >= 0
 c82: - 10 B7(14) + I53(14) >= 0
 c83: I53(14) >= 0
 c84: - 10 B8(9) + I54(11) >= 0
 c85: I54(11) >= 0
 c86: - 10 B9(13) + I55(15) >= 0
 c87: I55(15) >= 0
 c88: - 87 B2(12) - 95 B3(16) - 152 B5(17) - 143 B8(9) - 124 B9(13)
   - I48(15) - I49(19) - I51(18) - I54(11) - I55(15) + I56(1) = 0
Bounds
Binaries
 B0(13) B1(17) B2(12) B3(16) B4(17) B5(17) B6(10) B7(14) B8(9) B9(13)
 B10(0) B11(4) B12(2) B13(2) B14(4) B15(4) B16(4) B17(0) B18(2) B19(2)
 B20(4) B21(4) B22(0) B23(0) B24(0) B25(2) B26(2) B27(2) B28(0) B29(0)
 B30(2) B31(0) B32(2) B33(2) B34(0) B35(0) B36(0) B37(0) B38(0) B39(0)
 B40(0) B41(0) B42(0) B43(0) B44(0) B45(0)
Generals
 I46(14) I47(18) I48(15) I49(19) I50(17) I51(18) I52(10) I53(14) I54(11)
 I55(15) I56(1)
End
